;  time  = {'z3': 570.841}
;  terms = 76
;  score = 570.841
;  stdout= {'z3': 'sat\n'}
(set-logic QF_FP)
(declare-const x0 (_ FloatingPoint 8 24))
(declare-const x1 (_ FloatingPoint 8 24))
(declare-const x2 (_ FloatingPoint 8 24))
(declare-const x3 (_ FloatingPoint 8 24))
(declare-const x4 (_ FloatingPoint 8 24))
(declare-const x5 (_ FloatingPoint 8 24))
(declare-const x6 (_ FloatingPoint 8 24))
(declare-const x7 (_ FloatingPoint 8 24))
(declare-const x8 (_ FloatingPoint 8 24))
(declare-const x9 (_ FloatingPoint 8 24))
(assert (not (fp.isNaN x0)))
(assert (not (fp.isInfinite x0)))
(assert (not (fp.isZero x0)))
(assert (not (fp.isNaN x1)))
(assert (not (fp.isInfinite x1)))
(assert (not (fp.isZero x1)))
(assert (not (fp.isNaN x2)))
(assert (not (fp.isInfinite x2)))
(assert (not (fp.isZero x2)))
(assert (not (fp.isNaN x3)))
(assert (not (fp.isInfinite x3)))
(assert (not (fp.isZero x3)))
(assert (not (fp.isNaN x4)))
(assert (not (fp.isInfinite x4)))
(assert (not (fp.isZero x4)))
(assert (not (fp.isNaN x5)))
(assert (not (fp.isInfinite x5)))
(assert (not (fp.isZero x5)))
(assert (not (fp.isNaN x6)))
(assert (not (fp.isInfinite x6)))
(assert (not (fp.isZero x6)))
(assert (not (fp.isNaN x7)))
(assert (not (fp.isInfinite x7)))
(assert (not (fp.isZero x7)))
(assert (not (fp.isNaN x8)))
(assert (not (fp.isInfinite x8)))
(assert (not (fp.isZero x8)))
(assert (not (fp.isNaN x9)))
(assert (not (fp.isInfinite x9)))
(assert (not (fp.isZero x9)))
(assert (fp.gt (fp.abs (fp.abs (fp.div RNE (fp.div RNE (fp.div RNE x3 x9) (fp.abs x3)) (fp.sub RNE (fp.div RNE x6 (fp.min x3 x8)) (fp.div RNE x5 (fp.div RNE x4 x8)))))) (fp.div RNE (fp.sub RNE (fp.abs (fp.abs (fp.abs x5))) (fp.sqrt RNE (fp.div RNE (fp.div RNE x1 (fp.sqrt RNE x6)) (fp.min (fp.mul RNE x8 x2) (fp.sub RNE x7 x7))))) (fp.sub RNE (fp.max (fp.abs (fp.max (fp.sqrt RNE x5) (fp.mul RNE x4 x6))) (fp.mul RNE (fp.abs (fp.sub RNE x1 x0)) (fp.roundToIntegral RNE (fp.abs x2)))) (fp.add RNE (fp.div RNE (fp.abs (fp.sub RNE x3 x8)) (fp.neg (fp.div RNE x8 x0))) (fp.min (fp.abs (fp.mul RNE x2 x8)) (fp.neg (fp.add RNE x1 x3))))))))(check-sat)